p cnf 126 388
1 2 0
-1 -2 0
13 14 0
-13 -14 0
25 26 0
-25 -26 0
37 38 0
-37 -38 0
49 50 0
-49 -50 0
3 4 0
-3 -4 0
15 16 0
-15 -16 0
27 28 0
-27 -28 0
39 40 0
-39 -40 0
51 52 0
-51 -52 0
5 6 0
-5 -6 0
17 18 0
-17 -18 0
29 30 0
-29 -30 0
41 42 0
-41 -42 0
53 54 0
-53 -54 0
7 8 0
-7 -8 0
19 20 0
-19 -20 0
31 32 0
-31 -32 0
43 44 0
-43 -44 0
55 56 0
-55 -56 0
9 10 0
-9 -10 0
21 22 0
-21 -22 0
33 34 0
-33 -34 0
45 46 0
-45 -46 0
57 58 0
-57 -58 0
11 12 0
-11 -12 0
23 24 0
-23 -24 0
35 36 0
-35 -36 0
47 48 0
-47 -48 0
59 60 0
-59 -60 0
-1 -13 -49 4 0
-1 -14 -49 4 0
-1 -13 -50 4 0
-1 -14 -50 4 0
-2 -13 -49 4 0
-2 -14 -49 4 0
-2 -13 -50 4 0
-2 -14 -50 3 0
-13 -1 -25 16 0
-13 -2 -25 16 0
-13 -1 -26 16 0
-13 -2 -26 16 0
-14 -1 -25 16 0
-14 -2 -25 16 0
-14 -1 -26 16 0
-14 -2 -26 15 0
-25 -13 -37 28 0
-25 -14 -37 28 0
-25 -13 -38 28 0
-25 -14 -38 28 0
-26 -13 -37 28 0
-26 -14 -37 28 0
-26 -13 -38 28 0
-26 -14 -38 27 0
-37 -25 -49 40 0
-37 -26 -49 40 0
-37 -25 -50 40 0
-37 -26 -50 40 0
-38 -25 -49 40 0
-38 -26 -49 40 0
-38 -25 -50 40 0
-38 -26 -50 39 0
-49 -1 -37 52 0
-49 -2 -37 52 0
-49 -1 -38 52 0
-49 -2 -38 52 0
-50 -1 -37 52 0
-50 -2 -37 52 0
-50 -1 -38 52 0
-50 -2 -38 51 0
-3 -15 -51 6 0
-3 -16 -51 6 0
-3 -15 -52 6 0
-3 -16 -52 6 0
-4 -15 -51 6 0
-4 -16 -51 6 0
-4 -15 -52 6 0
-4 -16 -52 5 0
-15 -3 -27 18 0
-15 -4 -27 18 0
-15 -3 -28 18 0
-15 -4 -28 18 0
-16 -3 -27 18 0
-16 -4 -27 18 0
-16 -3 -28 18 0
-16 -4 -28 17 0
-27 -15 -39 30 0
-27 -16 -39 30 0
-27 -15 -40 30 0
-27 -16 -40 30 0
-28 -15 -39 30 0
-28 -16 -39 30 0
-28 -15 -40 30 0
-28 -16 -40 29 0
-39 -27 -51 42 0
-39 -28 -51 42 0
-39 -27 -52 42 0
-39 -28 -52 42 0
-40 -27 -51 42 0
-40 -28 -51 42 0
-40 -27 -52 42 0
-40 -28 -52 41 0
-51 -3 -39 54 0
-51 -4 -39 54 0
-51 -3 -40 54 0
-51 -4 -40 54 0
-52 -3 -39 54 0
-52 -4 -39 54 0
-52 -3 -40 54 0
-52 -4 -40 53 0
-5 -17 -53 8 0
-5 -18 -53 8 0
-5 -17 -54 8 0
-5 -18 -54 8 0
-6 -17 -53 8 0
-6 -18 -53 8 0
-6 -17 -54 8 0
-6 -18 -54 7 0
-17 -5 -29 20 0
-17 -6 -29 20 0
-17 -5 -30 20 0
-17 -6 -30 20 0
-18 -5 -29 20 0
-18 -6 -29 20 0
-18 -5 -30 20 0
-18 -6 -30 19 0
-29 -17 -41 32 0
-29 -18 -41 32 0
-29 -17 -42 32 0
-29 -18 -42 32 0
-30 -17 -41 32 0
-30 -18 -41 32 0
-30 -17 -42 32 0
-30 -18 -42 31 0
-41 -29 -53 44 0
-41 -30 -53 44 0
-41 -29 -54 44 0
-41 -30 -54 44 0
-42 -29 -53 44 0
-42 -30 -53 44 0
-42 -29 -54 44 0
-42 -30 -54 43 0
-53 -5 -41 56 0
-53 -6 -41 56 0
-53 -5 -42 56 0
-53 -6 -42 56 0
-54 -5 -41 56 0
-54 -6 -41 56 0
-54 -5 -42 56 0
-54 -6 -42 55 0
-7 -19 -55 10 0
-7 -20 -55 10 0
-7 -19 -56 10 0
-7 -20 -56 10 0
-8 -19 -55 10 0
-8 -20 -55 10 0
-8 -19 -56 10 0
-8 -20 -56 9 0
-19 -7 -31 22 0
-19 -8 -31 22 0
-19 -7 -32 22 0
-19 -8 -32 22 0
-20 -7 -31 22 0
-20 -8 -31 22 0
-20 -7 -32 22 0
-20 -8 -32 21 0
-31 -19 -43 34 0
-31 -20 -43 34 0
-31 -19 -44 34 0
-31 -20 -44 34 0
-32 -19 -43 34 0
-32 -20 -43 34 0
-32 -19 -44 34 0
-32 -20 -44 33 0
-43 -31 -55 46 0
-43 -32 -55 46 0
-43 -31 -56 46 0
-43 -32 -56 46 0
-44 -31 -55 46 0
-44 -32 -55 46 0
-44 -31 -56 46 0
-44 -32 -56 45 0
-55 -7 -43 58 0
-55 -8 -43 58 0
-55 -7 -44 58 0
-55 -8 -44 58 0
-56 -7 -43 58 0
-56 -8 -43 58 0
-56 -7 -44 58 0
-56 -8 -44 57 0
-9 -21 -57 12 0
-9 -22 -57 12 0
-9 -21 -58 12 0
-9 -22 -58 12 0
-10 -21 -57 12 0
-10 -22 -57 12 0
-10 -21 -58 12 0
-10 -22 -58 11 0
-21 -9 -33 24 0
-21 -10 -33 24 0
-21 -9 -34 24 0
-21 -10 -34 24 0
-22 -9 -33 24 0
-22 -10 -33 24 0
-22 -9 -34 24 0
-22 -10 -34 23 0
-33 -21 -45 36 0
-33 -22 -45 36 0
-33 -21 -46 36 0
-33 -22 -46 36 0
-34 -21 -45 36 0
-34 -22 -45 36 0
-34 -21 -46 36 0
-34 -22 -46 35 0
-45 -33 -57 48 0
-45 -34 -57 48 0
-45 -33 -58 48 0
-45 -34 -58 48 0
-46 -33 -57 48 0
-46 -34 -57 48 0
-46 -33 -58 48 0
-46 -34 -58 47 0
-57 -9 -45 60 0
-57 -10 -45 60 0
-57 -9 -46 60 0
-57 -10 -46 60 0
-58 -9 -45 60 0
-58 -10 -45 60 0
-58 -9 -46 60 0
-58 -10 -46 59 0
62 63 64 65 66 0
69 70 -62 0
1 -69 0
3 -69 0
2 -70 0
4 -70 0
81 82 -62 0
13 -81 0
15 -81 0
14 -82 0
16 -82 0
93 94 -62 0
25 -93 0
27 -93 0
26 -94 0
28 -94 0
105 106 -62 0
37 -105 0
39 -105 0
38 -106 0
40 -106 0
117 118 -62 0
49 -117 0
51 -117 0
50 -118 0
52 -118 0
71 72 -63 0
1 -71 0
5 -71 0
2 -72 0
6 -72 0
83 84 -63 0
13 -83 0
17 -83 0
14 -84 0
18 -84 0
95 96 -63 0
25 -95 0
29 -95 0
26 -96 0
30 -96 0
107 108 -63 0
37 -107 0
41 -107 0
38 -108 0
42 -108 0
119 120 -63 0
49 -119 0
53 -119 0
50 -120 0
54 -120 0
73 74 -64 0
1 -73 0
7 -73 0
2 -74 0
8 -74 0
85 86 -64 0
13 -85 0
19 -85 0
14 -86 0
20 -86 0
97 98 -64 0
25 -97 0
31 -97 0
26 -98 0
32 -98 0
109 110 -64 0
37 -109 0
43 -109 0
38 -110 0
44 -110 0
121 122 -64 0
49 -121 0
55 -121 0
50 -122 0
56 -122 0
75 76 -65 0
1 -75 0
9 -75 0
2 -76 0
10 -76 0
87 88 -65 0
13 -87 0
21 -87 0
14 -88 0
22 -88 0
99 100 -65 0
25 -99 0
33 -99 0
26 -100 0
34 -100 0
111 112 -65 0
37 -111 0
45 -111 0
38 -112 0
46 -112 0
123 124 -65 0
49 -123 0
57 -123 0
50 -124 0
58 -124 0
77 78 -66 0
1 -77 0
11 -77 0
2 -78 0
12 -78 0
89 90 -66 0
13 -89 0
23 -89 0
14 -90 0
24 -90 0
101 102 -66 0
25 -101 0
35 -101 0
26 -102 0
36 -102 0
113 114 -66 0
37 -113 0
47 -113 0
38 -114 0
48 -114 0
125 126 -66 0
49 -125 0
59 -125 0
50 -126 0
60 -126 0
-1 -13 -25 -37 -49 0
-2 -14 -26 -38 -50 0
